<number of tasks>
30

<cycle time>
75

<task times>
1 8
2 7
3 19
4 10
5 2
6 6
7 14
8 10
9 1
10 4
11 14
12 15
13 5
14 12
15 9
16 10
17 2
18 10
19 18
20 16
21 21
22 14
23 16
24 7
25 17
26 9
27 25
28 7
29 14
30 2

<precedence relations>
1,4
1,5
2,11
2,12
3,16
3,17
4,7
5,6
6,7
7,8
8,9
9,26
10,24
12,13
13,14
14,15
14,20
15,22
16,20
17,18
18,19
20,21
20,24
21,22
22,23
23,27
24,25
25,26
26,27
27,28
27,29
29,30

<setup times forward>
1,10:3
1,11:3
1,14:3
1,15:1
1,16:1
1,18:3
1,19:3
1,20:1
1,21:1
1,22:1
1,23:1
1,24:1
1,25:1
2,7:3
2,8:1
2,9:1
2,10:3
2,11:3
2,16:1
2,18:3
2,19:3
3,7:3
3,8:1
3,9:1
3,10:3
3,11:3
3,14:3
3,15:1
3,16:1
4,7:3
4,10:3
4,11:3
4,14:3
4,15:1
4,16:1
4,18:3
4,19:3
4,20:1
4,21:1
4,22:1
4,23:1
4,24:1
4,25:1
5,10:3
5,11:3
5,14:3
5,15:1
5,16:1
5,18:3
5,19:3
5,20:1
5,21:1
5,22:1
5,23:1
5,24:1
5,25:1
6,7:3
6,10:3
6,11:3
6,14:3
6,15:1
6,16:1
6,18:3
6,19:3
6,20:1
6,21:1
6,22:1
6,23:1
6,24:1
6,25:1
7,2:3
7,3:3
7,8:4
7,12:3
7,13:3
7,15:4
7,16:4
7,17:3
7,20:2
7,21:2
7,22:2
7,23:2
7,24:2
7,25:2
8,2:1
8,3:1
8,9:2
8,10:4
8,11:4
8,12:1
8,13:1
8,14:4
8,17:1
8,18:4
8,19:4
8,20:2
8,21:2
8,22:2
8,23:2
8,24:2
8,25:2
9,2:1
9,3:1
9,10:2
9,11:2
9,12:1
9,13:1
9,14:2
9,15:2
9,16:2
9,17:1
9,18:2
9,19:2
10,1:3
10,2:3
10,3:3
10,4:3
10,5:3
10,6:3
10,8:4
10,9:2
10,12:3
10,13:3
10,15:4
10,16:4
10,17:3
10,20:2
10,21:2
10,22:2
10,23:2
10,24:2
11,1:3
11,3:3
11,4:3
11,5:3
11,6:3
11,8:4
11,9:2
11,12:3
11,13:3
11,15:4
11,16:4
11,17:3
11,20:2
11,21:2
11,22:2
11,23:2
11,24:2
11,25:2
11,26:2
11,27:2
11,28:2
11,29:2
11,30:2
12,7:3
12,8:1
12,9:1
12,10:3
12,11:3
12,16:1
12,18:3
12,19:3
13,7:3
13,8:1
13,9:1
13,10:3
13,11:3
13,14:3
13,16:1
13,18:3
13,19:3
14,1:3
14,3:3
14,4:3
14,5:3
14,6:3
14,8:4
14,9:2
14,15:4
14,16:4
14,17:3
14,20:2
15,1:1
15,3:1
15,4:1
15,5:1
15,6:1
15,7:4
15,9:2
15,10:4
15,11:4
15,17:1
15,18:4
15,19:4
15,20:2
15,21:2
15,22:2
15,24:2
15,25:2
15,26:2
16,1:1
16,2:1
16,4:1
16,5:1
16,6:1
16,7:4
16,9:2
16,10:4
16,11:4
16,12:1
16,13:1
16,14:4
16,17:1
16,18:4
16,19:4
16,20:2
17,7:3
17,8:1
17,9:1
17,10:3
17,11:3
17,14:3
17,15:1
17,16:1
17,18:3
17,20:1
17,21:1
17,22:1
17,23:1
17,24:1
17,25:1
17,26:1
17,27:1
17,28:1
17,29:1
17,30:1
18,1:3
18,2:3
18,4:3
18,5:3
18,6:3
18,8:4
18,9:2
18,12:3
18,13:3
18,15:4
18,16:4
18,20:2
18,21:2
18,22:2
18,23:2
18,24:2
18,25:2
18,26:2
18,27:2
18,28:2
18,29:2
18,30:2
19,1:3
19,2:3
19,4:3
19,5:3
19,6:3
19,8:4
19,9:2
19,12:3
19,13:3
19,15:4
19,16:4
19,20:2
19,21:2
19,22:2
19,23:2
19,24:2
19,25:2
19,26:2
19,27:2
19,28:2
19,29:2
19,30:2
20,1:1
20,4:1
20,5:1
20,6:1
20,7:2
20,8:2
20,10:2
20,11:2
20,15:2
20,17:1
20,18:2
20,19:2
21,1:1
21,4:1
21,5:1
21,6:1
21,7:2
21,8:2
21,10:2
21,11:2
21,15:2
21,17:1
21,18:2
21,19:2
22,1:1
22,4:1
22,5:1
22,6:1
22,7:2
22,8:2
22,10:2
22,11:2
22,17:1
22,18:2
22,19:2
23,1:1
23,4:1
23,5:1
23,6:1
23,7:2
23,8:2
23,10:2
23,11:2
23,17:1
23,18:2
23,19:2
24,1:1
24,4:1
24,5:1
24,6:1
24,7:2
24,8:2
24,11:2
24,15:2
24,17:1
24,18:2
24,19:2
25,1:1
25,4:1
25,5:1
25,6:1
25,7:2
25,8:2
25,11:2
25,15:2
25,17:1
25,18:2
25,19:2
26,11:2
26,15:2
26,17:1
26,18:2
26,19:2
27,11:2
27,17:1
27,18:2
27,19:2
28,11:2
28,17:1
28,18:2
28,19:2
29,11:2
29,17:1
29,18:2
29,19:2
30,11:2
30,17:1
30,18:2
30,19:2

<setup times backward>
1,15:1
1,16:1
2,8:1
2,16:1
3,8:1
3,15:1
4,15:1
4,16:1
5,15:1
5,16:1
6,15:1
6,16:1
7,1:3
7,2:3
7,3:3
7,4:3
7,5:3
7,6:3
7,12:3
7,13:3
7,15:4
7,16:4
7,17:3
7,20:2
7,21:2
7,22:2
7,23:2
7,24:2
7,25:2
9,1:1
9,2:1
9,3:1
9,4:1
9,5:1
9,6:1
9,8:2
9,12:1
9,13:1
9,15:2
9,16:2
9,17:1
10,1:3
10,2:3
10,3:3
10,4:3
10,5:3
10,6:3
10,8:4
10,9:2
10,12:3
10,13:3
10,15:4
10,16:4
10,17:3
10,20:2
10,21:2
10,22:2
10,23:2
11,1:3
11,2:3
11,3:3
11,4:3
11,5:3
11,6:3
11,8:4
11,9:2
11,12:3
11,13:3
11,15:4
11,16:4
11,17:3
11,20:2
11,21:2
11,22:2
11,23:2
11,24:2
11,25:2
11,26:2
11,27:2
11,28:2
11,29:2
11,30:2
12,8:1
12,16:1
13,8:1
13,16:1
14,1:3
14,2:3
14,3:3
14,4:3
14,5:3
14,6:3
14,8:4
14,9:2
14,12:3
14,13:3
14,16:4
14,17:3
17,8:1
17,15:1
17,16:1
18,1:3
18,2:3
18,3:3
18,4:3
18,5:3
18,6:3
18,8:4
18,9:2
18,12:3
18,13:3
18,15:4
18,16:4
18,17:3
18,20:2
18,21:2
18,22:2
18,23:2
18,24:2
18,25:2
18,26:2
18,27:2
18,28:2
18,29:2
18,30:2
19,1:3
19,2:3
19,3:3
19,4:3
19,5:3
19,6:3
19,8:4
19,9:2
19,12:3
19,13:3
19,15:4
19,16:4
19,17:3
19,20:2
19,21:2
19,22:2
19,23:2
19,24:2
19,25:2
19,26:2
19,27:2
19,28:2
19,29:2
19,30:2
20,1:1
20,2:1
20,3:1
20,4:1
20,5:1
20,6:1
20,8:2
20,12:1
20,13:1
20,15:2
20,16:2
20,17:1
21,1:1
21,2:1
21,3:1
21,4:1
21,5:1
21,6:1
21,8:2
21,12:1
21,13:1
21,15:2
21,16:2
21,17:1
22,1:1
22,2:1
22,3:1
22,4:1
22,5:1
22,6:1
22,8:2
22,12:1
22,13:1
22,15:2
22,16:2
22,17:1
23,1:1
23,2:1
23,3:1
23,4:1
23,5:1
23,6:1
23,8:2
23,12:1
23,13:1
23,15:2
23,16:2
23,17:1
24,1:1
24,2:1
24,3:1
24,4:1
24,5:1
24,6:1
24,8:2
24,12:1
24,13:1
24,15:2
24,16:2
24,17:1
25,1:1
25,2:1
25,3:1
25,4:1
25,5:1
25,6:1
25,8:2
25,12:1
25,13:1
25,15:2
25,16:2
25,17:1
26,1:1
26,2:1
26,3:1
26,4:1
26,5:1
26,6:1
26,8:2
26,12:1
26,13:1
26,15:2
26,16:2
26,17:1
27,1:1
27,2:1
27,3:1
27,4:1
27,5:1
27,6:1
27,8:2
27,12:1
27,13:1
27,15:2
27,16:2
27,17:1
28,1:1
28,2:1
28,3:1
28,4:1
28,5:1
28,6:1
28,8:2
28,12:1
28,13:1
28,15:2
28,16:2
28,17:1
29,1:1
29,2:1
29,3:1
29,4:1
29,5:1
29,6:1
29,8:2
29,12:1
29,13:1
29,15:2
29,16:2
29,17:1
30,1:1
30,2:1
30,3:1
30,4:1
30,5:1
30,6:1
30,8:2
30,12:1
30,13:1
30,15:2
30,16:2
30,17:1

<end>

<optimal SALBP-1 value>
5


<rand seed>
467321153

<Lower Bounds>
Lm1=5
Lms1=5
Lm2=0
Lm3=1
Lm4=5
Best=5

<Optimal Stations (Iterations: 10)>
5
